* ENCODING=ISO-8859-1
NAME          CPLEX
ROWS
 N  obj1    
 G  c1      
 G  c2      
 G  c3      
 G  c4      
 G  c5      
 G  c6      
 G  c7      
 G  c8      
 G  c9      
 G  c10     
 G  c11     
 G  c12     
 G  c13     
 G  c14     
 G  c15     
 G  c16     
 G  c17     
 G  c18     
 G  c19     
 G  c20     
 G  c21     
 G  c22     
 G  c23     
 G  c24     
 G  c25     
 G  c26     
 G  c27     
 G  c28     
 G  c29     
 G  c30     
 G  c31     
 G  c32     
 G  c33     
 G  c34     
 G  c35     
 G  c36     
 G  c37     
 G  c38     
 G  c39     
 G  c40     
 G  c41     
 G  c42     
 G  c43     
 G  c44     
 G  c45     
 G  c46     
 G  c47     
 G  c48     
 G  c49     
 G  c50     
 G  c51     
 G  c52     
 G  c53     
 G  c54     
 G  c55     
 G  c56     
 G  c57     
 G  c58     
 G  c59     
 G  c60     
COLUMNS
    MARK0000  'MARKER'                 'INTORG'
    x1        obj1                            1
    x1        c5                            925
    x1        c12                           173
    x1        c20                           414
    x1        c21                          1000
    x1        c30                           483
    x1        c33                           763
    x1        c34                           423
    x1        c38                           924
    x1        c51                           261
    x1        c54                           206
    x2        obj1                            1
    x2        c27                           219
    x2        c31                           971
    x2        c43                           795
    x3        obj1                            1
    x3        c1                            194
    x3        c2                            321
    x3        c8                            867
    x3        c9                            128
    x3        c35                           416
    x3        c48                           559
    x3        c51                           166
    x4        obj1                            1
    x4        c9                            174
    x4        c11                           490
    x4        c23                           272
    x4        c35                           818
    x4        c36                           969
    x4        c53                           806
    x4        c55                           110
    x4        c59                           162
    x5        obj1                            1
    x5        c3                            516
    x5        c10                           118
    x5        c12                           543
    x5        c25                           274
    x5        c44                           241
    x5        c53                           792
    x6        obj1                            1
    x6        c1                            649
    x6        c25                           267
    x6        c26                           942
    x6        c34                           356
    x6        c35                           732
    x6        c38                           753
    x6        c53                           307
    x6        c58                           254
    x7        obj1                            1
    x7        c4                            413
    x7        c29                           884
    x7        c49                           603
    x8        obj1                            1
    x8        c4                            725
    x8        c14                           377
    x8        c43                           864
    x8        c57                           347
    x9        obj1                            1
    x9        c4                            204
    x9        c21                           697
    x9        c44                           539
    x9        c57                           245
    x10       obj1                            1
    x10       c17                           145
    x10       c29                           152
    x10       c30                           182
    x10       c41                           227
    x10       c45                           406
    x10       c50                           208
    x11       obj1                            1
    x11       c10                           423
    x11       c18                           573
    x11       c20                           491
    x11       c22                           891
    x11       c27                           102
    x11       c30                           903
    x11       c33                           632
    x11       c36                           629
    x11       c39                           282
    x11       c50                           811
    x12       obj1                            1
    x12       c13                           756
    x12       c19                           897
    x12       c28                           984
    x12       c31                           629
    x12       c38                           541
    x12       c39                           577
    x12       c43                           567
    x12       c44                           580
    x12       c49                           599
    x13       obj1                            1
    x13       c18                           953
    x13       c35                           161
    x13       c41                           959
    x13       c59                           950
    x14       obj1                            1
    x14       c3                            886
    x14       c8                            718
    x14       c31                           665
    x14       c39                           285
    x15       obj1                            1
    x15       c3                            259
    x15       c6                            364
    x15       c11                           840
    x15       c12                           736
    x15       c18                           720
    x15       c56                           951
    x16       obj1                            1
    x16       c9                            693
    x16       c10                           198
    x16       c15                           236
    x16       c16                           567
    x16       c26                           601
    x16       c51                           658
    x16       c58                           473
    x17       obj1                            1
    x17       c31                           726
    x17       c35                           176
    x17       c38                           288
    x17       c39                           496
    x17       c51                           650
    x18       obj1                            1
    x18       c6                            577
    x18       c11                           238
    x18       c22                           979
    x18       c29                           736
    x18       c32                           464
    x18       c33                           776
    x19       obj1                            1
    x19       c5                            529
    x19       c24                           263
    x19       c31                           739
    x19       c36                           936
    x19       c51                           460
    x20       obj1                            1
    x20       c21                           608
    x20       c33                           889
    x20       c47                           933
    x20       c57                           838
    x21       obj1                            1
    x21       c16                           528
    x21       c42                           284
    x21       c44                           712
    x21       c46                           221
    x22       obj1                            1
    x22       c16                           663
    x22       c19                           894
    x22       c23                           308
    x22       c25                           707
    x22       c45                           727
    x22       c51                           405
    x23       obj1                            1
    x23       c11                           693
    x23       c13                           357
    x23       c24                           866
    x23       c55                           601
    x24       obj1                            1
    x24       c17                           282
    x24       c24                           332
    x24       c26                           187
    x24       c59                           570
    x24       c60                           170
    x25       obj1                            1
    x25       c10                           295
    x25       c46                           898
    x25       c57                           790
    x26       obj1                            1
    x26       c4                            867
    x26       c9                            198
    x26       c11                           930
    x26       c51                           457
    x27       obj1                            1
    x27       c7                            791
    x27       c28                           508
    x27       c34                           193
    x28       obj1                            1
    x28       c10                           623
    x28       c14                           681
    x28       c15                           861
    x28       c27                           757
    x28       c37                           902
    x29       obj1                            1
    x29       c2                            220
    x29       c8                            185
    x29       c38                           732
    x29       c39                           992
    x29       c53                           598
    x29       c57                           130
    x30       obj1                            1
    x30       c26                           733
    x30       c30                           557
    x30       c43                           884
    x30       c45                           162
    x30       c54                           349
    x30       c60                           629
    x31       obj1                            1
    x31       c4                            784
    x31       c9                            547
    x31       c16                           557
    x31       c20                           429
    x31       c21                           756
    x31       c27                           838
    x31       c44                           681
    x31       c47                           341
    x31       c48                           300
    x31       c52                           671
    x32       obj1                            1
    x32       c1                            226
    x32       c11                           728
    x32       c20                           493
    x32       c26                           955
    x32       c54                           846
    x32       c55                           208
    x33       obj1                            1
    x33       c4                            898
    x33       c7                            136
    x33       c9                            333
    x33       c15                           399
    x33       c16                           231
    x33       c17                           422
    x33       c18                           835
    x33       c30                           849
    x34       obj1                            1
    x34       c4                            412
    x34       c13                           911
    x34       c18                           564
    x34       c20                           291
    x34       c37                           849
    x35       obj1                            1
    x35       c10                           425
    x35       c19                           129
    x35       c40                           353
    x35       c59                           570
    x36       obj1                            1
    x36       c32                           772
    x36       c33                           627
    x36       c35                           905
    x36       c39                           893
    x36       c53                           414
    x36       c57                           850
    x36       c59                           456
    x37       obj1                            1
    x37       c4                            716
    x37       c8                            285
    x37       c24                           384
    x37       c26                           251
    x37       c31                           954
    x37       c40                           752
    x37       c54                           835
    x37       c58                           289
    x38       obj1                            1
    x38       c21                           856
    x38       c28                           947
    x38       c30                           397
    x38       c33                           729
    x38       c50                           482
    x39       obj1                            1
    x39       c1                            160
    x39       c8                            317
    x39       c11                           627
    x39       c21                           460
    x40       obj1                            1
    x40       c38                           546
    x40       c45                          1000
    x40       c50                           762
    x40       c53                           155
    x40       c57                           376
    x41       obj1                            1
    x41       c10                           488
    x41       c12                           862
    x41       c19                           274
    x41       c30                           924
    x41       c40                           714
    x42       obj1                            1
    x42       c5                            162
    x42       c27                           526
    x42       c33                           444
    x42       c36                           464
    x42       c51                           494
    x42       c52                           503
    x42       c58                           578
    x43       obj1                            1
    x43       c6                            735
    x43       c17                           566
    x43       c27                           649
    x44       obj1                            1
    x44       c7                            583
    x44       c14                           779
    x44       c15                           918
    x44       c22                           554
    x44       c26                           442
    x44       c32                           878
    x44       c37                           180
    x45       obj1                            1
    x45       c8                            670
    x45       c11                           723
    x45       c13                           239
    x45       c17                           568
    x45       c60                           574
    x46       obj1                            1
    x46       c20                           473
    x46       c32                           493
    x46       c42                           464
    x46       c46                           152
    x46       c53                           698
    x46       c54                           392
    x46       c59                           408
    x46       c60                           617
    x47       obj1                            1
    x47       c9                            128
    x47       c12                           364
    x47       c13                           936
    x47       c17                           939
    x47       c23                           603
    x47       c34                           425
    x47       c39                           576
    x48       obj1                            1
    x48       c13                           105
    x48       c27                           270
    x48       c56                           381
    x49       obj1                            1
    x49       c1                            491
    x49       c21                           117
    x49       c30                           282
    x49       c38                           365
    x50       obj1                            1
    x50       c12                           860
    x50       c27                           321
    x50       c34                           841
    x50       c47                           617
    x51       obj1                            1
    x51       c6                            625
    x51       c9                            781
    x51       c16                           416
    x51       c17                           184
    x51       c19                           221
    x51       c32                           731
    x51       c40                           299
    x51       c52                           300
    x52       obj1                            1
    x52       c15                           998
    x52       c21                           782
    x52       c29                           281
    x52       c40                           900
    x52       c48                           960
    x52       c53                           209
    x53       obj1                            1
    x53       c7                            619
    x53       c12                           122
    x53       c19                           151
    x53       c31                           844
    x54       obj1                            1
    x54       c22                           429
    x54       c23                           631
    x54       c26                           240
    x54       c33                           386
    x55       obj1                            1
    x55       c3                            567
    x55       c12                           351
    x55       c32                           906
    x55       c40                           127
    x55       c42                           921
    x55       c46                           792
    x55       c49                           789
    x55       c57                           677
    x56       obj1                            1
    x56       c17                           790
    x56       c23                           636
    x56       c28                           653
    x56       c34                           296
    x56       c36                           328
    x56       c38                           350
    x56       c44                           203
    x56       c49                           227
    x56       c51                           977
    x56       c52                           757
    x56       c59                           342
    x57       obj1                            1
    x57       c6                            751
    x57       c8                            963
    x57       c41                           739
    x57       c42                           911
    x57       c43                           118
    x57       c45                           628
    x58       obj1                            1
    x58       c2                            889
    x58       c5                            797
    x58       c34                           475
    x58       c44                           943
    x59       obj1                            1
    x59       c12                           686
    x59       c16                           694
    x59       c19                           262
    x59       c21                           846
    x59       c53                           275
    x59       c59                           115
    x60       obj1                            1
    x60       c16                           336
    x60       c23                           540
    x60       c28                           218
    x60       c56                           368
    MARK0001  'MARKER'                 'INTEND'
RHS
    rhs       c1                            860
    rhs       c2                            715
    rhs       c3                           1114
    rhs       c4                           2510
    rhs       c5                           1207
    rhs       c6                           1526
    rhs       c7                           1065
    rhs       c8                           2003
    rhs       c9                           1491
    rhs       c10                          1285
    rhs       c11                          2635
    rhs       c12                          2349
    rhs       c13                          1652
    rhs       c14                           919
    rhs       c15                          1706
    rhs       c16                          1996
    rhs       c17                          1948
    rhs       c18                          1823
    rhs       c19                          1414
    rhs       c20                          1296
    rhs       c21                          3061
    rhs       c22                          1427
    rhs       c23                          1495
    rhs       c24                           923
    rhs       c25                           624
    rhs       c26                          2176
    rhs       c27                          1841
    rhs       c28                          1655
    rhs       c29                          1027
    rhs       c30                          2289
    rhs       c31                          2764
    rhs       c32                          2122
    rhs       c33                          2623
    rhs       c34                          1505
    rhs       c35                          1604
    rhs       c36                          1663
    rhs       c37                           966
    rhs       c38                          2250
    rhs       c39                          2051
    rhs       c40                          1573
    rhs       c41                           963
    rhs       c42                          1290
    rhs       c43                          1614
    rhs       c44                          1950
    rhs       c45                          1462
    rhs       c46                          1032
    rhs       c47                           946
    rhs       c48                           910
    rhs       c49                          1109
    rhs       c50                          1132
    rhs       c51                          2264
    rhs       c52                          1116
    rhs       c53                          2127
    rhs       c54                          1314
    rhs       c55                           460
    rhs       c56                           850
    rhs       c57                          2127
    rhs       c58                           797
    rhs       c59                          1787
    rhs       c60                           995
BOUNDS
 LI bnd       x1        0
 LI bnd       x2        0
 LI bnd       x3        0
 LI bnd       x4        0
 LI bnd       x5        0
 LI bnd       x6        0
 LI bnd       x7        0
 LI bnd       x8        0
 LI bnd       x9        0
 LI bnd       x10       0
 LI bnd       x11       0
 LI bnd       x12       0
 LI bnd       x13       0
 LI bnd       x14       0
 LI bnd       x15       0
 LI bnd       x16       0
 LI bnd       x17       0
 LI bnd       x18       0
 LI bnd       x19       0
 LI bnd       x20       0
 LI bnd       x21       0
 LI bnd       x22       0
 LI bnd       x23       0
 LI bnd       x24       0
 LI bnd       x25       0
 LI bnd       x26       0
 LI bnd       x27       0
 LI bnd       x28       0
 LI bnd       x29       0
 LI bnd       x30       0
 LI bnd       x31       0
 LI bnd       x32       0
 LI bnd       x33       0
 LI bnd       x34       0
 LI bnd       x35       0
 LI bnd       x36       0
 LI bnd       x37       0
 LI bnd       x38       0
 LI bnd       x39       0
 LI bnd       x40       0
 LI bnd       x41       0
 LI bnd       x42       0
 LI bnd       x43       0
 LI bnd       x44       0
 LI bnd       x45       0
 LI bnd       x46       0
 LI bnd       x47       0
 LI bnd       x48       0
 LI bnd       x49       0
 LI bnd       x50       0
 LI bnd       x51       0
 LI bnd       x52       0
 LI bnd       x53       0
 LI bnd       x54       0
 LI bnd       x55       0
 LI bnd       x56       0
 LI bnd       x57       0
 LI bnd       x58       0
 LI bnd       x59       0
 LI bnd       x60       0
ENDATA
